1230134
57,66,15,60,82,75,37,87,49,98,71,54,52,96,7,88,63,2,4,84,1,26,34,41,35,90,48,9,61,92,43,55,5,68,74,40,17,76,95,29,20,19,59,30,31,32,8,94,65,38,91,83,64,53,97,70,33,45,22,10,27,89,58,42,23,51,21,18,25,16,11,93,50,39,28,78,77,24,72,13,6,80,3,46,56,69,73,0,47,36,62,12,67,79,86,44,85,14,81